[VALIDATOR STDOUT]
Checking plan: /home/jfan5/Safety-gen/runs/benchmark/optic/grid_20260205_115226/grid/optic_results/grid_x8_y8_sh2_k4_l4_s8001.plan
Plan executed successfully - checking goal
Plan valid
Final value: 53 

Successful plans:
Value: 53
 /home/jfan5/Safety-gen/runs/benchmark/optic/grid_20260205_115226/grid/optic_results/grid_x8_y8_sh2_k4_l4_s8001.plan 53
